letting numberLocations be  34
letting costs be function (
(0,0) --> 0,
(0,1) --> 54,
(0,2) --> 93,
(0,3) --> 77,
(0,4) --> 103,
(0,5) --> 99,
(0,6) --> 68,
(0,7) --> 49,
(0,8) --> 62,
(0,9) --> 51,
(0,10) --> 54,
(0,11) --> 95,
(0,12) --> 49,
(0,13) --> 86,
(0,14) --> 99,
(0,15) --> 89,
(0,16) --> 54,
(0,17) --> 44,
(0,18) --> 69,
(0,19) --> 94,
(0,20) --> 47,
(0,21) --> 60,
(0,22) --> 94,
(0,23) --> 53,
(0,24) --> 100,
(0,25) --> 63,
(0,26) --> 69,
(0,27) --> 96,
(0,28) --> 117,
(0,29) --> 44,
(0,30) --> 95,
(0,31) --> 65,
(0,32) --> 91,
(0,33) --> 75,
(0,34) --> 95,
(1,0) --> 54,
(1,1) --> 0,
(1,2) --> 53,
(1,3) --> 98,
(1,4) --> 87,
(1,5) --> 71,
(1,6) --> 94,
(1,7) --> 8,
(1,8) --> 92,
(1,9) --> 7,
(1,10) --> 11,
(1,11) --> 65,
(1,12) --> 11,
(1,13) --> 46,
(1,14) --> 82,
(1,15) --> 61,
(1,16) --> 10,
(1,17) --> 19,
(1,18) --> 92,
(1,19) --> 64,
(1,20) --> 10,
(1,21) --> 92,
(1,22) --> 68,
(1,23) --> 4,
(1,24) --> 85,
(1,25) --> 94,
(1,26) --> 91,
(1,27) --> 82,
(1,28) --> 99,
(1,29) --> 19,
(1,30) --> 68,
(1,31) --> 95,
(1,32) --> 48,
(1,33) --> 100,
(1,34) --> 81,
(2,0) --> 93,
(2,1) --> 53,
(2,2) --> 0,
(2,3) --> 94,
(2,4) --> 49,
(2,5) --> 26,
(2,6) --> 95,
(2,7) --> 61,
(2,8) --> 98,
(2,9) --> 60,
(2,10) --> 63,
(2,11) --> 20,
(2,12) --> 64,
(2,13) --> 8,
(2,14) --> 45,
(2,15) --> 21,
(2,16) --> 62,
(2,17) --> 72,
(2,18) --> 91,
(2,19) --> 19,
(2,20) --> 62,
(2,21) --> 101,
(2,22) --> 27,
(2,23) --> 57,
(2,24) --> 49,
(2,25) --> 101,
(2,26) --> 90,
(2,27) --> 48,
(2,28) --> 57,
(2,29) --> 72,
(2,30) --> 25,
(2,31) --> 100,
(2,32) --> 6,
(2,33) --> 99,
(2,34) --> 48,
(3,0) --> 77,
(3,1) --> 98,
(3,2) --> 94,
(3,3) --> 0,
(3,4) --> 64,
(3,5) --> 78,
(3,6) --> 11,
(3,7) --> 100,
(3,8) --> 19,
(3,9) --> 101,
(3,10) --> 106,
(3,11) --> 80,
(3,12) --> 102,
(3,13) --> 90,
(3,14) --> 62,
(3,15) --> 75,
(3,16) --> 105,
(3,17) --> 103,
(3,18) --> 8,
(3,19) --> 80,
(3,20) --> 99,
(3,21) --> 23,
(3,22) --> 73,
(3,23) --> 100,
(3,24) --> 60,
(3,25) --> 21,
(3,26) --> 8,
(3,27) --> 57,
(3,28) --> 72,
(3,29) --> 103,
(3,30) --> 76,
(3,31) --> 18,
(3,32) --> 97,
(3,33) --> 7,
(3,34) --> 56,
(4,0) --> 103,
(4,1) --> 87,
(4,2) --> 49,
(4,3) --> 64,
(4,4) --> 0,
(4,5) --> 23,
(4,6) --> 70,
(4,7) --> 93,
(4,8) --> 76,
(4,9) --> 93,
(4,10) --> 98,
(4,11) --> 29,
(4,12) --> 96,
(4,13) --> 50,
(4,14) --> 5,
(4,15) --> 29,
(4,16) --> 97,
(4,17) --> 102,
(4,18) --> 65,
(4,19) --> 30,
(4,20) --> 94,
(4,21) --> 80,
(4,22) --> 22,
(4,23) --> 90,
(4,24) --> 4,
(4,25) --> 79,
(4,26) --> 64,
(4,27) --> 8,
(4,28) --> 13,
(4,29) --> 102,
(4,30) --> 24,
(4,31) --> 77,
(4,32) --> 54,
(4,33) --> 70,
(4,34) --> 9,
(5,0) --> 99,
(5,1) --> 71,
(5,2) --> 26,
(5,3) --> 78,
(5,4) --> 23,
(5,5) --> 0,
(5,6) --> 82,
(5,7) --> 78,
(5,8) --> 86,
(5,9) --> 78,
(5,10) --> 82,
(5,11) --> 7,
(5,12) --> 81,
(5,13) --> 29,
(5,14) --> 19,
(5,15) --> 11,
(5,16) --> 81,
(5,17) --> 88,
(5,18) --> 77,
(5,19) --> 8,
(5,20) --> 79,
(5,21) --> 90,
(5,22) --> 5,
(5,23) --> 75,
(5,24) --> 24,
(5,25) --> 89,
(5,26) --> 76,
(5,27) --> 24,
(5,28) --> 31,
(5,29) --> 88,
(5,30) --> 4,
(5,31) --> 88,
(5,32) --> 32,
(5,33) --> 84,
(5,34) --> 24,
(6,0) --> 68,
(6,1) --> 94,
(6,2) --> 95,
(6,3) --> 11,
(6,4) --> 70,
(6,5) --> 82,
(6,6) --> 0,
(6,7) --> 95,
(6,8) --> 8,
(6,9) --> 96,
(6,10) --> 101,
(6,11) --> 83,
(6,12) --> 97,
(6,13) --> 91,
(6,14) --> 68,
(6,15) --> 78,
(6,16) --> 100,
(6,17) --> 97,
(6,18) --> 5,
(6,19) --> 83,
(6,20) --> 94,
(6,21) --> 13,
(6,22) --> 77,
(6,23) --> 96,
(6,24) --> 66,
(6,25) --> 10,
(6,26) --> 6,
(6,27) --> 63,
(6,28) --> 80,
(6,29) --> 97,
(6,30) --> 79,
(6,31) --> 8,
(6,32) --> 98,
(6,33) --> 7,
(6,34) --> 62,
(7,0) --> 49,
(7,1) --> 8,
(7,2) --> 61,
(7,3) --> 100,
(7,4) --> 93,
(7,5) --> 78,
(7,6) --> 95,
(7,7) --> 0,
(7,8) --> 92,
(7,9) --> 2,
(7,10) --> 7,
(7,11) --> 72,
(7,12) --> 3,
(7,13) --> 54,
(7,14) --> 88,
(7,15) --> 68,
(7,16) --> 6,
(7,17) --> 11,
(7,18) --> 93,
(7,19) --> 71,
(7,20) --> 2,
(7,21) --> 92,
(7,22) --> 75,
(7,23) --> 5,
(7,24) --> 91,
(7,25) --> 94,
(7,26) --> 92,
(7,27) --> 88,
(7,28) --> 106,
(7,29) --> 11,
(7,30) --> 75,
(7,31) --> 95,
(7,32) --> 56,
(7,33) --> 101,
(7,34) --> 87,
(8,0) --> 62,
(8,1) --> 92,
(8,2) --> 98,
(8,3) --> 19,
(8,4) --> 76,
(8,5) --> 86,
(8,6) --> 8,
(8,7) --> 92,
(8,8) --> 0,
(8,9) --> 94,
(8,10) --> 98,
(8,11) --> 87,
(8,12) --> 94,
(8,13) --> 93,
(8,14) --> 74,
(8,15) --> 81,
(8,16) --> 98,
(8,17) --> 93,
(8,18) --> 13,
(8,19) --> 87,
(8,20) --> 91,
(8,21) --> 4,
(8,22) --> 82,
(8,23) --> 93,
(8,24) --> 72,
(8,25) --> 3,
(8,26) --> 13,
(8,27) --> 69,
(8,28) --> 86,
(8,29) --> 93,
(8,30) --> 84,
(8,31) --> 3,
(8,32) --> 100,
(8,33) --> 14,
(8,34) --> 68,
(9,0) --> 51,
(9,1) --> 7,
(9,2) --> 60,
(9,3) --> 101,
(9,4) --> 93,
(9,5) --> 78,
(9,6) --> 96,
(9,7) --> 2,
(9,8) --> 94,
(9,9) --> 0,
(9,10) --> 5,
(9,11) --> 72,
(9,12) --> 4,
(9,13) --> 53,
(9,14) --> 88,
(9,15) --> 68,
(9,16) --> 4,
(9,17) --> 12,
(9,18) --> 94,
(9,19) --> 71,
(9,20) --> 4,
(9,21) --> 94,
(9,22) --> 75,
(9,23) --> 4,
(9,24) --> 91,
(9,25) --> 96,
(9,26) --> 94,
(9,27) --> 88,
(9,28) --> 106,
(9,29) --> 12,
(9,30) --> 75,
(9,31) --> 97,
(9,32) --> 55,
(9,33) --> 103,
(9,34) --> 87,
(10,0) --> 54,
(10,1) --> 11,
(10,2) --> 63,
(10,3) --> 106,
(10,4) --> 98,
(10,5) --> 82,
(10,6) --> 101,
(10,7) --> 7,
(10,8) --> 98,
(10,9) --> 5,
(10,10) --> 0,
(10,11) --> 75,
(10,12) --> 5,
(10,13) --> 56,
(10,14) --> 92,
(10,15) --> 72,
(10,16) --> 1,
(10,17) --> 12,
(10,18) --> 99,
(10,19) --> 74,
(10,20) --> 8,
(10,21) --> 99,
(10,22) --> 79,
(10,23) --> 7,
(10,24) --> 96,
(10,25) --> 101,
(10,26) --> 99,
(10,27) --> 93,
(10,28) --> 110,
(10,29) --> 12,
(10,30) --> 79,
(10,31) --> 102,
(10,32) --> 58,
(10,33) --> 108,
(10,34) --> 92,
(11,0) --> 95,
(11,1) --> 65,
(11,2) --> 20,
(11,3) --> 80,
(11,4) --> 29,
(11,5) --> 7,
(11,6) --> 83,
(11,7) --> 72,
(11,8) --> 87,
(11,9) --> 72,
(11,10) --> 75,
(11,11) --> 0,
(11,12) --> 75,
(11,13) --> 22,
(11,14) --> 25,
(11,15) --> 6,
(11,16) --> 74,
(11,17) --> 82,
(11,18) --> 78,
(11,19) --> 1,
(11,20) --> 73,
(11,21) --> 90,
(11,22) --> 7,
(11,23) --> 68,
(11,24) --> 30,
(11,25) --> 90,
(11,26) --> 77,
(11,27) --> 29,
(11,28) --> 38,
(11,29) --> 82,
(11,30) --> 5,
(11,31) --> 89,
(11,32) --> 25,
(11,33) --> 85,
(11,34) --> 29,
(12,0) --> 49,
(12,1) --> 11,
(12,2) --> 64,
(12,3) --> 102,
(12,4) --> 96,
(12,5) --> 81,
(12,6) --> 97,
(12,7) --> 3,
(12,8) --> 94,
(12,9) --> 4,
(12,10) --> 5,
(12,11) --> 75,
(12,12) --> 0,
(12,13) --> 57,
(12,14) --> 91,
(12,15) --> 71,
(12,16) --> 4,
(12,17) --> 9,
(12,18) --> 95,
(12,19) --> 74,
(12,20) --> 3,
(12,21) --> 94,
(12,22) --> 78,
(12,23) --> 7,
(12,24) --> 94,
(12,25) --> 96,
(12,26) --> 95,
(12,27) --> 91,
(12,28) --> 109,
(12,29) --> 9,
(12,30) --> 78,
(12,31) --> 97,
(12,32) --> 59,
(12,33) --> 103,
(12,34) --> 90,
(13,0) --> 86,
(13,1) --> 46,
(13,2) --> 8,
(13,3) --> 90,
(13,4) --> 50,
(13,5) --> 29,
(13,6) --> 91,
(13,7) --> 54,
(13,8) --> 93,
(13,9) --> 53,
(13,10) --> 56,
(13,11) --> 22,
(13,12) --> 57,
(13,13) --> 0,
(13,14) --> 46,
(13,15) --> 21,
(13,16) --> 55,
(13,17) --> 64,
(13,18) --> 87,
(13,19) --> 21,
(13,20) --> 55,
(13,21) --> 96,
(13,22) --> 28,
(13,23) --> 50,
(13,24) --> 50,
(13,25) --> 96,
(13,26) --> 86,
(13,27) --> 49,
(13,28) --> 60,
(13,29) --> 64,
(13,30) --> 27,
(13,31) --> 95,
(13,32) --> 7,
(13,33) --> 95,
(13,34) --> 48,
(14,0) --> 99,
(14,1) --> 82,
(14,2) --> 45,
(14,3) --> 62,
(14,4) --> 5,
(14,5) --> 19,
(14,6) --> 68,
(14,7) --> 88,
(14,8) --> 74,
(14,9) --> 88,
(14,10) --> 92,
(14,11) --> 25,
(14,12) --> 91,
(14,13) --> 46,
(14,14) --> 0,
(14,15) --> 24,
(14,16) --> 91,
(14,17) --> 97,
(14,18) --> 63,
(14,19) --> 26,
(14,20) --> 88,
(14,21) --> 78,
(14,22) --> 18,
(14,23) --> 85,
(14,24) --> 4,
(14,25) --> 77,
(14,26) --> 62,
(14,27) --> 5,
(14,28) --> 19,
(14,29) --> 97,
(14,30) --> 20,
(14,31) --> 75,
(14,32) --> 50,
(14,33) --> 69,
(14,34) --> 6,
(15,0) --> 89,
(15,1) --> 61,
(15,2) --> 21,
(15,3) --> 75,
(15,4) --> 29,
(15,5) --> 11,
(15,6) --> 78,
(15,7) --> 68,
(15,8) --> 81,
(15,9) --> 68,
(15,10) --> 72,
(15,11) --> 6,
(15,12) --> 71,
(15,13) --> 21,
(15,14) --> 24,
(15,15) --> 0,
(15,16) --> 71,
(15,17) --> 78,
(15,18) --> 73,
(15,19) --> 6,
(15,20) --> 69,
(15,21) --> 85,
(15,22) --> 7,
(15,23) --> 64,
(15,24) --> 29,
(15,25) --> 84,
(15,26) --> 72,
(15,27) --> 28,
(15,28) --> 40,
(15,29) --> 78,
(15,30) --> 7,
(15,31) --> 83,
(15,32) --> 26,
(15,33) --> 80,
(15,34) --> 27,
(16,0) --> 54,
(16,1) --> 10,
(16,2) --> 62,
(16,3) --> 105,
(16,4) --> 97,
(16,5) --> 81,
(16,6) --> 100,
(16,7) --> 6,
(16,8) --> 98,
(16,9) --> 4,
(16,10) --> 1,
(16,11) --> 74,
(16,12) --> 4,
(16,13) --> 55,
(16,14) --> 91,
(16,15) --> 71,
(16,16) --> 0,
(16,17) --> 12,
(16,18) --> 98,
(16,19) --> 74,
(16,20) --> 7,
(16,21) --> 98,
(16,22) --> 78,
(16,23) --> 6,
(16,24) --> 95,
(16,25) --> 100,
(16,26) --> 98,
(16,27) --> 92,
(16,28) --> 109,
(16,29) --> 12,
(16,30) --> 78,
(16,31) --> 101,
(16,32) --> 57,
(16,33) --> 107,
(16,34) --> 91,
(17,0) --> 44,
(17,1) --> 19,
(17,2) --> 72,
(17,3) --> 103,
(17,4) --> 102,
(17,5) --> 88,
(17,6) --> 97,
(17,7) --> 11,
(17,8) --> 93,
(17,9) --> 12,
(17,10) --> 12,
(17,11) --> 82,
(17,12) --> 9,
(17,13) --> 64,
(17,14) --> 97,
(17,15) --> 78,
(17,16) --> 12,
(17,17) --> 0,
(17,18) --> 96,
(17,19) --> 81,
(17,20) --> 9,
(17,21) --> 93,
(17,22) --> 85,
(17,23) --> 16,
(17,24) --> 100,
(17,25) --> 95,
(17,26) --> 96,
(17,27) --> 97,
(17,28) --> 115,
(17,29) --> 0,
(17,30) --> 85,
(17,31) --> 97,
(17,32) --> 67,
(17,33) --> 104,
(17,34) --> 95,
(18,0) --> 69,
(18,1) --> 92,
(18,2) --> 91,
(18,3) --> 8,
(18,4) --> 65,
(18,5) --> 77,
(18,6) --> 5,
(18,7) --> 93,
(18,8) --> 13,
(18,9) --> 94,
(18,10) --> 99,
(18,11) --> 78,
(18,12) --> 95,
(18,13) --> 87,
(18,14) --> 63,
(18,15) --> 73,
(18,16) --> 98,
(18,17) --> 96,
(18,18) --> 0,
(18,19) --> 79,
(18,20) --> 92,
(18,21) --> 17,
(18,22) --> 72,
(18,23) --> 94,
(18,24) --> 61,
(18,25) --> 15,
(18,26) --> 1,
(18,27) --> 58,
(18,28) --> 75,
(18,29) --> 96,
(18,30) --> 75,
(18,31) --> 12,
(18,32) --> 93,
(18,33) --> 9,
(18,34) --> 57,
(19,0) --> 94,
(19,1) --> 64,
(19,2) --> 19,
(19,3) --> 80,
(19,4) --> 30,
(19,5) --> 8,
(19,6) --> 83,
(19,7) --> 71,
(19,8) --> 87,
(19,9) --> 71,
(19,10) --> 74,
(19,11) --> 1,
(19,12) --> 74,
(19,13) --> 21,
(19,14) --> 26,
(19,15) --> 6,
(19,16) --> 74,
(19,17) --> 81,
(19,18) --> 79,
(19,19) --> 0,
(19,20) --> 72,
(19,21) --> 90,
(19,22) --> 8,
(19,23) --> 67,
(19,24) --> 30,
(19,25) --> 90,
(19,26) --> 78,
(19,27) --> 30,
(19,28) --> 39,
(19,29) --> 81,
(19,30) --> 6,
(19,31) --> 89,
(19,32) --> 24,
(19,33) --> 86,
(19,34) --> 30,
(20,0) --> 47,
(20,1) --> 10,
(20,2) --> 62,
(20,3) --> 99,
(20,4) --> 94,
(20,5) --> 79,
(20,6) --> 94,
(20,7) --> 2,
(20,8) --> 91,
(20,9) --> 4,
(20,10) --> 8,
(20,11) --> 73,
(20,12) --> 3,
(20,13) --> 55,
(20,14) --> 88,
(20,15) --> 69,
(20,16) --> 7,
(20,17) --> 9,
(20,18) --> 92,
(20,19) --> 72,
(20,20) --> 0,
(20,21) --> 91,
(20,22) --> 76,
(20,23) --> 7,
(20,24) --> 91,
(20,25) --> 93,
(20,26) --> 92,
(20,27) --> 89,
(20,28) --> 107,
(20,29) --> 9,
(20,30) --> 76,
(20,31) --> 94,
(20,32) --> 58,
(20,33) --> 100,
(20,34) --> 87,
(21,0) --> 60,
(21,1) --> 92,
(21,2) --> 101,
(21,3) --> 23,
(21,4) --> 80,
(21,5) --> 90,
(21,6) --> 13,
(21,7) --> 92,
(21,8) --> 4,
(21,9) --> 94,
(21,10) --> 99,
(21,11) --> 90,
(21,12) --> 94,
(21,13) --> 96,
(21,14) --> 78,
(21,15) --> 85,
(21,16) --> 98,
(21,17) --> 93,
(21,18) --> 17,
(21,19) --> 90,
(21,20) --> 91,
(21,21) --> 0,
(21,22) --> 85,
(21,23) --> 94,
(21,24) --> 76,
(21,25) --> 3,
(21,26) --> 18,
(21,27) --> 73,
(21,28) --> 91,
(21,29) --> 93,
(21,30) --> 87,
(21,31) --> 6,
(21,32) --> 102,
(21,33) --> 18,
(21,34) --> 72,
(22,0) --> 94,
(22,1) --> 68,
(22,2) --> 27,
(22,3) --> 73,
(22,4) --> 22,
(22,5) --> 5,
(22,6) --> 77,
(22,7) --> 75,
(22,8) --> 82,
(22,9) --> 75,
(22,10) --> 79,
(22,11) --> 7,
(22,12) --> 78,
(22,13) --> 28,
(22,14) --> 18,
(22,15) --> 7,
(22,16) --> 78,
(22,17) --> 85,
(22,18) --> 72,
(22,19) --> 8,
(22,20) --> 76,
(22,21) --> 85,
(22,22) --> 0,
(22,23) --> 72,
(22,24) --> 22,
(22,25) --> 85,
(22,26) --> 71,
(22,27) --> 22,
(22,28) --> 32,
(22,29) --> 85,
(22,30) --> 2,
(22,31) --> 83,
(22,32) --> 32,
(22,33) --> 79,
(22,34) --> 22,
(23,0) --> 53,
(23,1) --> 4,
(23,2) --> 57,
(23,3) --> 100,
(23,4) --> 90,
(23,5) --> 75,
(23,6) --> 96,
(23,7) --> 5,
(23,8) --> 93,
(23,9) --> 4,
(23,10) --> 7,
(23,11) --> 68,
(23,12) --> 7,
(23,13) --> 50,
(23,14) --> 85,
(23,15) --> 64,
(23,16) --> 6,
(23,17) --> 16,
(23,18) --> 94,
(23,19) --> 67,
(23,20) --> 7,
(23,21) --> 94,
(23,22) --> 72,
(23,23) --> 0,
(23,24) --> 88,
(23,25) --> 96,
(23,26) --> 93,
(23,27) --> 86,
(23,28) --> 103,
(23,29) --> 16,
(23,30) --> 72,
(23,31) --> 96,
(23,32) --> 52,
(23,33) --> 102,
(23,34) --> 84,
(24,0) --> 100,
(24,1) --> 85,
(24,2) --> 49,
(24,3) --> 60,
(24,4) --> 4,
(24,5) --> 24,
(24,6) --> 66,
(24,7) --> 91,
(24,8) --> 72,
(24,9) --> 91,
(24,10) --> 96,
(24,11) --> 30,
(24,12) --> 94,
(24,13) --> 50,
(24,14) --> 4,
(24,15) --> 29,
(24,16) --> 95,
(24,17) --> 100,
(24,18) --> 61,
(24,19) --> 30,
(24,20) --> 91,
(24,21) --> 76,
(24,22) --> 22,
(24,23) --> 88,
(24,24) --> 0,
(24,25) --> 75,
(24,26) --> 60,
(24,27) --> 4,
(24,28) --> 17,
(24,29) --> 100,
(24,30) --> 24,
(24,31) --> 73,
(24,32) --> 54,
(24,33) --> 66,
(24,34) --> 5,
(25,0) --> 63,
(25,1) --> 94,
(25,2) --> 101,
(25,3) --> 21,
(25,4) --> 79,
(25,5) --> 89,
(25,6) --> 10,
(25,7) --> 94,
(25,8) --> 3,
(25,9) --> 96,
(25,10) --> 101,
(25,11) --> 90,
(25,12) --> 96,
(25,13) --> 96,
(25,14) --> 77,
(25,15) --> 84,
(25,16) --> 100,
(25,17) --> 95,
(25,18) --> 15,
(25,19) --> 90,
(25,20) --> 93,
(25,21) --> 3,
(25,22) --> 85,
(25,23) --> 96,
(25,24) --> 75,
(25,25) --> 0,
(25,26) --> 16,
(25,27) --> 72,
(25,28) --> 89,
(25,29) --> 95,
(25,30) --> 87,
(25,31) --> 3,
(25,32) --> 103,
(25,33) --> 15,
(25,34) --> 71,
(26,0) --> 69,
(26,1) --> 91,
(26,2) --> 90,
(26,3) --> 8,
(26,4) --> 64,
(26,5) --> 76,
(26,6) --> 6,
(26,7) --> 92,
(26,8) --> 13,
(26,9) --> 94,
(26,10) --> 99,
(26,11) --> 77,
(26,12) --> 95,
(26,13) --> 86,
(26,14) --> 62,
(26,15) --> 72,
(26,16) --> 98,
(26,17) --> 96,
(26,18) --> 1,
(26,19) --> 78,
(26,20) --> 92,
(26,21) --> 18,
(26,22) --> 71,
(26,23) --> 93,
(26,24) --> 60,
(26,25) --> 16,
(26,26) --> 0,
(26,27) --> 57,
(26,28) --> 74,
(26,29) --> 96,
(26,30) --> 74,
(26,31) --> 13,
(26,32) --> 93,
(26,33) --> 9,
(26,34) --> 56,
(27,0) --> 96,
(27,1) --> 82,
(27,2) --> 48,
(27,3) --> 57,
(27,4) --> 8,
(27,5) --> 24,
(27,6) --> 63,
(27,7) --> 88,
(27,8) --> 69,
(27,9) --> 88,
(27,10) --> 93,
(27,11) --> 29,
(27,12) --> 91,
(27,13) --> 49,
(27,14) --> 5,
(27,15) --> 28,
(27,16) --> 92,
(27,17) --> 97,
(27,18) --> 58,
(27,19) --> 30,
(27,20) --> 89,
(27,21) --> 73,
(27,22) --> 22,
(27,23) --> 86,
(27,24) --> 4,
(27,25) --> 72,
(27,26) --> 57,
(27,27) --> 0,
(27,28) --> 21,
(27,29) --> 97,
(27,30) --> 24,
(27,31) --> 70,
(27,32) --> 53,
(27,33) --> 64,
(27,34) --> 1,
(28,0) --> 117,
(28,1) --> 99,
(28,2) --> 57,
(28,3) --> 72,
(28,4) --> 13,
(28,5) --> 31,
(28,6) --> 80,
(28,7) --> 106,
(28,8) --> 86,
(28,9) --> 106,
(28,10) --> 110,
(28,11) --> 38,
(28,12) --> 109,
(28,13) --> 60,
(28,14) --> 19,
(28,15) --> 40,
(28,16) --> 109,
(28,17) --> 115,
(28,18) --> 75,
(28,19) --> 39,
(28,20) --> 107,
(28,21) --> 91,
(28,22) --> 32,
(28,23) --> 103,
(28,24) --> 17,
(28,25) --> 89,
(28,26) --> 74,
(28,27) --> 21,
(28,28) --> 0,
(28,29) --> 115,
(28,30) --> 33,
(28,31) --> 87,
(28,32) --> 63,
(28,33) --> 79,
(28,34) --> 22,
(29,0) --> 44,
(29,1) --> 19,
(29,2) --> 72,
(29,3) --> 103,
(29,4) --> 102,
(29,5) --> 88,
(29,6) --> 97,
(29,7) --> 11,
(29,8) --> 93,
(29,9) --> 12,
(29,10) --> 12,
(29,11) --> 82,
(29,12) --> 9,
(29,13) --> 64,
(29,14) --> 97,
(29,15) --> 78,
(29,16) --> 12,
(29,17) --> 0,
(29,18) --> 96,
(29,19) --> 81,
(29,20) --> 9,
(29,21) --> 93,
(29,22) --> 85,
(29,23) --> 16,
(29,24) --> 100,
(29,25) --> 95,
(29,26) --> 96,
(29,27) --> 97,
(29,28) --> 115,
(29,29) --> 0,
(29,30) --> 85,
(29,31) --> 97,
(29,32) --> 67,
(29,33) --> 104,
(29,34) --> 95,
(30,0) --> 95,
(30,1) --> 68,
(30,2) --> 25,
(30,3) --> 76,
(30,4) --> 24,
(30,5) --> 4,
(30,6) --> 79,
(30,7) --> 75,
(30,8) --> 84,
(30,9) --> 75,
(30,10) --> 79,
(30,11) --> 5,
(30,12) --> 78,
(30,13) --> 27,
(30,14) --> 20,
(30,15) --> 7,
(30,16) --> 78,
(30,17) --> 85,
(30,18) --> 75,
(30,19) --> 6,
(30,20) --> 76,
(30,21) --> 87,
(30,22) --> 2,
(30,23) --> 72,
(30,24) --> 24,
(30,25) --> 87,
(30,26) --> 74,
(30,27) --> 24,
(30,28) --> 33,
(30,29) --> 85,
(30,30) --> 0,
(30,31) --> 85,
(30,32) --> 31,
(30,33) --> 82,
(30,34) --> 24,
(31,0) --> 65,
(31,1) --> 95,
(31,2) --> 100,
(31,3) --> 18,
(31,4) --> 77,
(31,5) --> 88,
(31,6) --> 8,
(31,7) --> 95,
(31,8) --> 3,
(31,9) --> 97,
(31,10) --> 102,
(31,11) --> 89,
(31,12) --> 97,
(31,13) --> 95,
(31,14) --> 75,
(31,15) --> 83,
(31,16) --> 101,
(31,17) --> 97,
(31,18) --> 12,
(31,19) --> 89,
(31,20) --> 94,
(31,21) --> 6,
(31,22) --> 83,
(31,23) --> 96,
(31,24) --> 73,
(31,25) --> 3,
(31,26) --> 13,
(31,27) --> 70,
(31,28) --> 87,
(31,29) --> 97,
(31,30) --> 85,
(31,31) --> 0,
(31,32) --> 102,
(31,33) --> 12,
(31,34) --> 69,
(32,0) --> 91,
(32,1) --> 48,
(32,2) --> 6,
(32,3) --> 97,
(32,4) --> 54,
(32,5) --> 32,
(32,6) --> 98,
(32,7) --> 56,
(32,8) --> 100,
(32,9) --> 55,
(32,10) --> 58,
(32,11) --> 25,
(32,12) --> 59,
(32,13) --> 7,
(32,14) --> 50,
(32,15) --> 26,
(32,16) --> 57,
(32,17) --> 67,
(32,18) --> 93,
(32,19) --> 24,
(32,20) --> 58,
(32,21) --> 102,
(32,22) --> 32,
(32,23) --> 52,
(32,24) --> 54,
(32,25) --> 103,
(32,26) --> 93,
(32,27) --> 53,
(32,28) --> 63,
(32,29) --> 67,
(32,30) --> 31,
(32,31) --> 102,
(32,32) --> 0,
(32,33) --> 102,
(32,34) --> 53,
(33,0) --> 75,
(33,1) --> 100,
(33,2) --> 99,
(33,3) --> 7,
(33,4) --> 70,
(33,5) --> 84,
(33,6) --> 7,
(33,7) --> 101,
(33,8) --> 14,
(33,9) --> 103,
(33,10) --> 108,
(33,11) --> 85,
(33,12) --> 103,
(33,13) --> 95,
(33,14) --> 69,
(33,15) --> 80,
(33,16) --> 107,
(33,17) --> 104,
(33,18) --> 9,
(33,19) --> 86,
(33,20) --> 100,
(33,21) --> 18,
(33,22) --> 79,
(33,23) --> 102,
(33,24) --> 66,
(33,25) --> 15,
(33,26) --> 9,
(33,27) --> 64,
(33,28) --> 79,
(33,29) --> 104,
(33,30) --> 82,
(33,31) --> 12,
(33,32) --> 102,
(33,33) --> 0,
(33,34) --> 63,
(34,0) --> 95,
(34,1) --> 81,
(34,2) --> 48,
(34,3) --> 56,
(34,4) --> 9,
(34,5) --> 24,
(34,6) --> 62,
(34,7) --> 87,
(34,8) --> 68,
(34,9) --> 87,
(34,10) --> 92,
(34,11) --> 29,
(34,12) --> 90,
(34,13) --> 48,
(34,14) --> 6,
(34,15) --> 27,
(34,16) --> 91,
(34,17) --> 95,
(34,18) --> 57,
(34,19) --> 30,
(34,20) --> 87,
(34,21) --> 72,
(34,22) --> 22,
(34,23) --> 84,
(34,24) --> 5,
(34,25) --> 71,
(34,26) --> 56,
(34,27) --> 1,
(34,28) --> 22,
(34,29) --> 95,
(34,30) --> 24,
(34,31) --> 69,
(34,32) --> 53,
(34,33) --> 63,
(34,34) --> 0)
letting orderWeights be function (
1 --> 12
,
2 --> 3
,
3 --> 2
,
4 --> 13
,
5 --> 17
,
6 --> 12
,
7 --> 1
,
8 --> 26
,
9 --> 13
,
10 --> 15
,
11 --> 20
,
12 --> 20
,
13 --> 3
,
14 --> 3
,
15 --> 12
,
16 --> 25
,
17 --> 2
,
18 --> 15
,
19 --> 24
,
20 --> 2
,
21 --> 7
,
22 --> 15
,
23 --> 2
,
24 --> 13
,
25 --> 9
,
26 --> 12
,
27 --> 26
,
28 --> 17
,
29 --> 26
,
30 --> 9
,
31 --> 14
,
32 --> 9
,
33 --> 25
,
34 --> 13
)
letting vehicleCapacity be 100
